This is MiniSat 2.0 beta
============================[ Problem Statistics ]=============================
|                                                                             |
|  Number of variables:  20                                                   |
|  Number of clauses:    45                                                   |
|  Parsing time:         0.00         s                                       |
============================[ Search Statistics ]==============================
| Conflicts |          ORIGINAL         |          LEARNT          | Progress |
|           |    Vars  Clauses Literals |    Limit  Clauses Lit/Cl |          |
===============================================================================
|         0 |      15       40      120 |       13        0    nan |  0.000 % |
===============================================================================
restarts              : 1
conflicts             : 29             (inf /sec)
decisions             : 34             (0.00 % random) (inf /sec)
propagations          : 203            (inf /sec)
conflict literals     : 118            (11.94 % deleted)
CPU time              : 0 s

